Problem:    
Rows:       248
Columns:    89 (72 integer, 72 binary)
Non-zeros:  820
Status:     INTEGER OPTIMAL
Objective:  value = 29.191924 (MINimum)

   No.   Row name        Activity     Lower bound   Upper bound
------ ------------    ------------- ------------- -------------
     1 r.5                   29.1919             0               
     2 r.6                   6.30523      -494.351               
     3 r.7                   529.192             0               
     4 r.8                  -487.953      -493.038               
     5 r.9                   29.1919             0               
     6 r.10                 -462.153      -491.345               
     7 r.11                  529.192             0               
     8 r.12                 -474.116      -491.724               
     9 r.13                  529.192             0               
    10 r.14                 -482.232      -492.595               
    11 r.15                  29.1919             0               
    12 r.16                  8.08552      -494.412               
    13 r.17                  529.192             0               
    14 r.18                 -489.638      -496.214               
    15 r.19                  29.1919             0               
    16 r.20                 -469.291      -495.176               
    17 r.21                  29.1919             0               
    18 r.22                  6.57642      -496.729               
    19 r.23                  529.192             0               
    20 r.24                 -482.391      -497.439               
    21 r.25                  529.192             0               
    22 r.26                 -470.808      -491.576               
    23 r.27                  29.1919             0               
    24 r.28                -0.502826      -483.246               
    25 r.29                  29.1919             0               
    26 r.30                  20.7676      -497.277               
    27 r.31                  529.192             0               
    28 r.32                 -470.808      -499.693               
    29 r.33                  29.1919             0               
    30 r.34                 0.576417      -499.075               
    31 r.35                  529.192             0               
    32 r.36                 -499.424      -499.424               
    33 r.37                        1             1             = 
    34 r.38                        1             1             = 
    35 r.39                        1             1             = 
    36 r.40                        1             1             = 
    37 r.41                        1             1             = 
    38 r.42                        1             1             = 
    39 r.43                        1             1             = 
    40 r.44                        1             1             = 
    41 r.45                  34.5413       8.65464               
    42 r.46                 -34.5413      -494.351               
    43 r.47                  10.8374       8.27589               
    44 r.48                 -10.8374      -493.038               
    45 r.49                  14.4623       7.40543               
    46 r.50                 -17.4623      -494.351               
    47 r.51                  493.038       5.58834               
    48 r.52                 -490.038      -493.038               
    49 r.53                  7.05691       3.78572               
    50 r.54                 -7.05691      -494.351               
    51 r.55                  15.6615       4.82413               
    52 r.56                 -15.6615      -493.038               
    53 r.57                  3.27119       3.27119               
    54 r.58                 -3.27119      -494.351               
    55 r.59                  2.56149       2.56149               
    56 r.60                 -2.56149      -493.038               
    57 r.61                 -474.113      -488.576               
    58 r.62                 -3.80806      -480.246               
    59 r.63                 -485.855      -488.576               
    60 r.64                 -15.5499      -480.246               
    61 r.65                  17.4623       2.72279               
    62 r.66                 -17.4623      -494.351               
    63 r.67                  14.1448      0.307472               
    64 r.68                 -14.1448      -493.038               
    65 r.69                  2.72881      -491.351               
    66 r.70                 -485.529      -490.038               
    67 r.71                  2.72881      -491.351               
    68 r.72                 -485.529      -490.038               
    69 r.73                  468.459       5.64852               
    70 r.74                 -465.459      -491.345               
    71 r.75                  486.163       6.96156               
    72 r.76                 -489.163      -491.724               
    73 r.77                  479.921       7.40543               
    74 r.78                 -482.921      -491.345               
    75 r.79                  482.201       5.58834               
    76 r.80                 -479.201      -491.724               
    77 r.81                  472.516       3.78572               
    78 r.82                 -472.516      -491.345               
    79 r.83                  4.82413       4.82413               
    80 r.84                 -4.82413      -491.724               
    81 r.85                   468.73       3.27119               
    82 r.86                  -468.73      -491.345               
    83 r.87                  491.724       2.56149               
    84 r.88                 -491.724      -491.724               
    85 r.89                  491.345       8.42436               
    86 r.90                 -491.345      -491.345               
    87 r.91                  473.613       16.7538               
    88 r.92                 -473.613      -491.724               
    89 r.93                  482.921      -494.277               
    90 r.94                 -8.65464      -496.693               
    91 r.95                 -5.11689      -494.277               
    92 r.96                 -496.693      -496.693               
    93 r.97                  -462.73      -488.345               
    94 r.98                 -474.692      -488.724               
    95 r.99                  -462.73      -488.345               
    96 r.100                -474.692      -488.724               
    97 r.101                 485.538       5.64852               
    98 r.102                -482.538      -492.595               
    99 r.103                 6.96156       6.96156               
   100 r.104                -9.96156      -494.412               
   101 r.105                  17.079       8.65464               
   102 r.106                 -17.079      -492.595               
   103 r.107                 20.7989       8.27589               
   104 r.108                -20.7989      -494.412               
   105 r.109                -489.595      -489.595               
   106 r.110                -5.27662      -491.412               
   107 r.111                -9.94101      -489.595               
   108 r.112                 474.377      -491.412               
   109 r.113                 485.809       3.27119               
   110 r.114                -485.809      -492.595               
   111 r.115                  12.523       2.56149               
   112 r.116                 -12.523      -494.412               
   113 r.117                 8.42436       8.42436               
   114 r.118                -8.42436      -492.595               
   115 r.119                 494.412       16.7538               
   116 r.120                -494.412      -494.412               
   117 r.121                       0      -494.277               
   118 r.122                -491.576      -496.693               
   119 r.123                  15.682      -494.277               
   120 r.124                -475.894      -496.693               
   121 r.125                -479.809      -489.595               
   122 r.126                  4.5091      -491.412               
   123 r.127                -479.809      -489.595               
   124 r.128                  4.5091      -491.412               
   125 r.129                 495.943       5.64852               
   126 r.130                -492.943      -496.214               
   127 r.131                 481.339       6.96156               
   128 r.132                -484.339      -495.176               
   129 r.133                 27.4844       8.65464               
   130 r.134                -27.4844      -496.214               
   131 r.135                 495.176       8.27589               
   132 r.136                -495.176      -495.176               
   133 r.137                -489.595      -489.595               
   134 r.138                -5.27662      -491.412               
   135 r.139                -9.94101      -489.595               
   136 r.140                 474.377      -491.412               
   137 r.141                 496.214       3.27119               
   138 r.142                -496.214      -496.214               
   139 r.143                   486.9       2.56149               
   140 r.144                  -486.9      -495.176               
   141 r.145                 18.8298       8.42436               
   142 r.146                -18.8298      -496.214               
   143 r.147                 468.789       16.7538               
   144 r.148                -468.789      -495.176               
   145 r.149                 10.4054      -494.277               
   146 r.150                 -481.17      -496.693               
   147 r.151                 490.059      -494.277               
   148 r.152                -1.51665      -496.693               
   149 r.153                -490.214      -490.214               
   150 r.154                -469.868      -489.176               
   151 r.155                -490.214      -490.214               
   152 r.156                -469.868      -489.176               
   153 r.157                 499.729       5.64852               
   154 r.158                -496.729      -496.729               
   155 r.159                 494.439       6.96156               
   156 r.160                -497.439      -497.439               
   157 r.161                 31.2701       8.65464               
   158 r.162                -31.2701      -496.729               
   159 r.163                 8.27589       8.27589               
   160 r.164                -8.27589      -497.439               
   161 r.165                 11.1911       7.40543               
   162 r.166                -14.1911      -496.729               
   163 r.167                 490.477       5.58834               
   164 r.168                -487.477      -497.439               
   165 r.169                 3.78572       3.78572               
   166 r.170                -3.78572      -496.729               
   167 r.171                    13.1       4.82413               
   168 r.172                   -13.1      -497.439               
   169 r.173                -477.384      -488.576               
   170 r.174                -7.07924      -480.246               
   171 r.175                -488.417      -488.576               
   172 r.176                -18.1114      -480.246               
   173 r.177                 14.1911      -494.277               
   174 r.178                -477.384      -496.693               
   175 r.179                   3.159      -494.277               
   176 r.180                -488.417      -496.693               
   177 r.181                       6      -490.729               
   178 r.182                -482.968      -491.439               
   179 r.183                       6      -490.729               
   180 r.184                -482.968      -491.439               
   181 r.185                -474.113      -488.576               
   182 r.186                -3.80806      -480.246               
   183 r.187                -485.855      -488.576               
   184 r.188                -15.5499      -480.246               
   185 r.189                 8.65464       8.65464               
   186 r.190                -8.65464      -491.576               
   187 r.191                 26.3873       8.27589               
   188 r.192                -26.3873      -483.246               
   189 r.193                 488.576       7.40543               
   190 r.194                -491.576      -491.576               
   191 r.195                 8.58834       5.58834               
   192 r.196                -5.58834      -483.246               
   193 r.197                  481.17       3.78572               
   194 r.198                 -481.17      -491.576               
   195 r.199                 31.2114       4.82413               
   196 r.200                -31.2114      -483.246               
   197 r.201                -477.384      -488.576               
   198 r.202                -7.07924      -480.246               
   199 r.203                -488.417      -488.576               
   200 r.204                -18.1114      -480.246               
   201 r.205                 491.576       2.72279               
   202 r.206                -491.576      -491.576               
   203 r.207                 29.6948      0.307472               
   204 r.208                -29.6948      -483.246               
   205 r.209                 485.538       5.64852               
   206 r.210                -482.538      -497.277               
   207 r.211                 482.855       6.96156               
   208 r.212                -485.855      -499.693               
   209 r.213                 482.921      -494.277               
   210 r.214                -8.65464      -496.693               
   211 r.215                -5.11689      -494.277               
   212 r.216                -496.693      -496.693               
   213 r.217                       0      -494.277               
   214 r.218                -491.576      -496.693               
   215 r.219                  15.682      -494.277               
   216 r.220                -475.894      -496.693               
   217 r.221                 10.4054      -494.277               
   218 r.222                 -481.17      -496.693               
   219 r.223                 490.059      -494.277               
   220 r.224                -1.51665      -496.693               
   221 r.225                 14.1911      -494.277               
   222 r.226                -477.384      -496.693               
   223 r.227                   3.159      -494.277               
   224 r.228                -488.417      -496.693               
   225 r.229                 8.42436       8.42436               
   226 r.230                -8.42436      -497.277               
   227 r.231                 470.305       16.7538               
   228 r.232                -470.305      -499.693               
   229 r.233                 2.72881      -491.351               
   230 r.234                -485.529      -490.038               
   231 r.235                 2.72881      -491.351               
   232 r.236                -485.529      -490.038               
   233 r.237                 -462.73      -488.345               
   234 r.238                -474.692      -488.724               
   235 r.239                 -462.73      -488.345               
   236 r.240                -474.692      -488.724               
   237 r.241                -479.809      -489.595               
   238 r.242                  4.5091      -491.412               
   239 r.243                -479.809      -489.595               
   240 r.244                  4.5091      -491.412               
   241 r.245                -490.214      -490.214               
   242 r.246                -469.868      -489.176               
   243 r.247                -490.214      -490.214               
   244 r.248                -469.868      -489.176               
   245 r.249                       6      -490.729               
   246 r.250                -482.968      -491.439               
   247 r.251                       6      -490.729               
   248 r.252                -482.968      -491.439               

   No. Column name       Activity     Lower bound   Upper bound
------ ------------    ------------- ------------- -------------
     1 tt                    29.1919             0               
     2 s_1_1        *              0             0             1 
     3 t_1_1                 25.8867             0               
     4 s_1_6        *              1             0             1 
     5 s_2_1        *              1             0             1 
     6 t_2_1                 14.1448             0               
     7 s_2_6        *              0             0             1 
     8 s_1_2        *              0             0             1 
     9 t_1_2                 491.345             0               
    10 s_1_7        *              0             0             1 
    11 s_2_2        *              1             0             1 
    12 t_2_2                 3.30747             0               
    13 s_2_7        *              1             0             1 
    14 s_1_3        *              1             0             1 
    15 t_1_3                 8.42436             0               
    16 s_2_3        *              0             0             1 
    17 t_2_3                 24.1064             0               
    18 s_1_4        *              1             0             1 
    19 t_1_4                 18.8298             0               
    20 s_2_4        *              0             0             1 
    21 t_2_4                 498.483             0               
    22 s_1_5        *              0             0             1 
    23 t_1_5                 22.6155             0               
    24 s_2_5        *              1             0             1 
    25 t_2_5                 11.5834             0               
    26 t_1_6                       0             0               
    27 t_2_6                 29.6948             0               
    28 t_1_7                 8.42436             0               
    29 t_2_7                       0             0               
    30 s_1_8        *              0             0             1 
    31 t_1_8                 28.6155             0               
    32 s_2_8        *              1             0             1 
    33 t_2_8                 28.6155             0               
    34 u_1_1_2      *              1             0             1 
    35 u_2_1_2      *              0             0             1 
    36 u_1_1_3      *              0             0             1 
    37 u_2_1_3      *              1             0             1 
    38 u_1_1_4      *              0             0             1 
    39 u_2_1_4      *              1             0             1 
    40 u_1_1_5      *              0             0             1 
    41 u_2_1_5      *              0             0             1 
    42 u_1_1_7      *              0             0             1 
    43 u_2_1_7      *              0             0             1 
    44 u_1_2_1      *              0             0             1 
    45 u_2_2_1      *              1             0             1 
    46 u_1_2_3      *              0             0             1 
    47 u_2_2_3      *              1             0             1 
    48 u_1_2_4      *              0             0             1 
    49 u_2_2_4      *              1             0             1 
    50 u_1_2_5      *              0             0             1 
    51 u_2_2_5      *              1             0             1 
    52 u_1_2_6      *              0             0             1 
    53 u_2_2_6      *              1             0             1 
    54 u_1_3_1      *              1             0             1 
    55 u_2_3_1      *              0             0             1 
    56 u_1_3_2      *              1             0             1 
    57 u_2_3_2      *              0             0             1 
    58 u_1_3_5      *              1             0             1 
    59 u_2_3_5      *              0             0             1 
    60 u_1_3_6      *              0             0             1 
    61 u_2_3_6      *              1             0             1 
    62 u_1_4_1      *              1             0             1 
    63 u_2_4_1      *              0             0             1 
    64 u_1_4_2      *              1             0             1 
    65 u_2_4_2      *              0             0             1 
    66 u_1_4_5      *              1             0             1 
    67 u_2_4_5      *              0             0             1 
    68 u_1_4_6      *              0             0             1 
    69 u_2_4_6      *              0             0             1 
    70 u_1_5_1      *              1             0             1 
    71 u_2_5_1      *              1             0             1 
    72 u_1_5_2      *              1             0             1 
    73 u_2_5_2      *              0             0             1 
    74 u_1_5_3      *              0             0             1 
    75 u_2_5_3      *              1             0             1 
    76 u_1_5_4      *              0             0             1 
    77 u_2_5_4      *              1             0             1 
    78 u_1_6_2      *              1             0             1 
    79 u_2_6_2      *              0             0             1 
    80 u_1_6_3      *              1             0             1 
    81 u_2_6_3      *              0             0             1 
    82 u_1_6_4      *              1             0             1 
    83 u_2_6_4      *              1             0             1 
    84 u_1_6_7      *              1             0             1 
    85 u_2_6_7      *              0             0             1 
    86 u_1_7_1      *              1             0             1 
    87 u_2_7_1      *              1             0             1 
    88 u_1_7_6      *              0             0             1 
    89 u_2_7_6      *              1             0             1 

Integer feasibility conditions:

KKT.PE: max.abs.err = 1.14e-13 on row 20
        max.rel.err = 1.09e-16 on row 126
        High quality

KKT.PB: max.abs.err = 2.13e-14 on row 79
        max.rel.err = 3.66e-15 on row 79
        High quality

End of output
